Version identifier: 20.1.0.0 | 2020-11-10 | 9bedb6d68
Tried aggregator 2 times.
MIP Presolve eliminated 2620 rows and 1394 columns.
MIP Presolve modified 6360 coefficients.
Aggregator did 248 substitutions.
Reduced MIP has 3821 rows, 3053 columns, and 12592 nonzeros.
Reduced MIP has 668 binaries, 2385 generals, 0 SOSs, and 0 indicators.
Presolve time = 0.04 sec. (15.85 ticks)
Probing fixed 80 vars, tightened 647 bounds.
Probing time = 0.01 sec. (1.62 ticks)
Cover probing fixed 0 vars, tightened 64 bounds.
Tried aggregator 2 times.
Detecting symmetries...
MIP Presolve eliminated 1640 rows and 140 columns.
MIP Presolve modified 327 coefficients.
Aggregator did 38 substitutions.
Reduced MIP has 2143 rows, 2875 columns, and 7158 nonzeros.
Reduced MIP has 854 binaries, 2021 generals, 0 SOSs, and 0 indicators.
Presolve time = 0.02 sec. (10.76 ticks)
Probing time = 0.00 sec. (0.74 ticks)
Clique table members: 245.
MIP emphasis: balance optimality and feasibility.
MIP search method: dynamic search.
Parallel mode: deterministic, using up to 24 threads.
Root relaxation solution time = 0.04 sec. (9.27 ticks)

        Nodes                                         Cuts/
   Node  Left     Objective  IInf  Best Integer    Best Bound    ItCnt     Gap

*     0+    0                           89.0000        0.0000           100.00%
      0     0        0.0000   106       89.0000        0.0000      717  100.00%
*     0+    0                           84.0000        0.0000           100.00%
      0     0        0.0000    99       84.0000     Cuts: 189      847  100.00%
      0     0        0.0000    88       84.0000     Cuts: 231     1034  100.00%
      0     0        0.0000   161       84.0000      Cuts: 68     1141  100.00%
      0     0        0.0000    56       84.0000      Cuts: 76     1441  100.00%
*     0+    0                           28.0000        0.0000           100.00%
      0     0        0.0048   398       28.0000      Cuts: 83     1708   67.86%
*     0+    0                           27.0000        9.0000            66.67%
      0     2        0.0048   398       27.0000        9.0000     1708   66.67%
Elapsed time = 1.58 sec. (372.02 ticks, tree = 0.02 MB, solutions = 4)
*   165+   22                           25.0000        9.0000            64.00%
*   283+  146                           24.0000        9.0000            62.50%
*   517+  184                           22.0000        9.0000            59.09%
    694    20       19.0000    31       22.0000        9.0000    95631   59.09%
*   717+   15                           19.0000       14.0000            26.32%

Cover cuts applied:  7
Implied bound cuts applied:  322
Flow cuts applied:  3
Mixed integer rounding cuts applied:  46
Zero-half cuts applied:  156
Lift and project cuts applied:  29
Gomory fractional cuts applied:  60

Root node processing (before b&c):
  Real time             =    1.50 sec. (371.15 ticks)
Parallel b&c, 24 threads:
  Real time             =    1.51 sec. (289.84 ticks)
  Sync time (average)   =    0.90 sec.
  Wait time (average)   =    0.00 sec.
                          ------------
Total (root+branch&cut) =    3.01 sec. (660.99 ticks)

Solution status = Optimal
Solution LB = 19
Solution UB = 19
Runtime = 3.01663 seconds
	Command being timed: "/home/min/git_repos/CS598MEBProject/CNT-ILP/build/cnt -s 2 ./output/k8_n40/simC_c1_k8_n40_u2_s3_del04.input-right.cnp"
	User time (seconds): 44.03
	System time (seconds): 0.45
	Percent of CPU this job got: 1442%
	Elapsed (wall clock) time (h:mm:ss or m:ss): 0:03.08
	Average shared text size (kbytes): 0
	Average unshared data size (kbytes): 0
	Average stack size (kbytes): 0
	Average total size (kbytes): 0
	Maximum resident set size (kbytes): 222164
	Average resident set size (kbytes): 0
	Major (requiring I/O) page faults: 0
	Minor (reclaiming a frame) page faults: 90526
	Voluntary context switches: 10356
	Involuntary context switches: 6318
	Swaps: 0
	File system inputs: 0
	File system outputs: 16
	Socket messages sent: 0
	Socket messages received: 0
	Signals delivered: 0
	Page size (bytes): 4096
	Exit status: 0
